NAME: TIC53-20-20-4
TYPE: TSP
COMMENT: TSP
DIMENSION: 6
EDGE_WEIGHT_TYPE: EXPLICIT
EDGE_WEIGHT_FORMAT: FULL_MATRIX
EDGE_WEIGHT_SECTION
0 363 295 80 472 359 
363 0 352 413 327 414 
295 352 0 481 229 388 
80 413 481 0 242 317 
472 327 229 242 0 249 
359 414 388 317 249 0 
EOF
